
Log started (V12.10.0.0) Fri Apr 23 07:36:16 2021


Problem 'asset.lp' read.
Read time = 0.01 sec. (0.93 ticks)
New value for default parallel thread count: 1
New value for time limit in seconds: 150
Version identifier: 12.10.0.0 | 2019-11-26 | 843d4de
CPXPARAM_Threads                                 1
CPXPARAM_TimeLimit                               150
Found incumbent of value 0.000000 after 0.00 sec. (0.22 ticks)
Tried aggregator 4 times.
MIP Presolve eliminated 3815 rows and 308 columns.
MIP Presolve modified 7422 coefficients.
Aggregator did 2554 substitutions.
Reduced MIP has 2921 rows, 3364 columns, and 16013 nonzeros.
Reduced MIP has 3031 binaries, 265 generals, 0 SOSs, and 0 indicators.
Presolve time = 0.04 sec. (44.99 ticks)
Probing fixed 401 vars, tightened 33 bounds.
Probing time = 0.03 sec. (25.79 ticks)
Cover probing fixed 0 vars, tightened 37 bounds.
Tried aggregator 2 times.
MIP Presolve eliminated 798 rows and 470 columns.
MIP Presolve modified 224 coefficients.
Aggregator did 1 substitutions.
Reduced MIP has 2122 rows, 2893 columns, and 12636 nonzeros.
Reduced MIP has 2595 binaries, 232 generals, 0 SOSs, and 0 indicators.
Presolve time = 0.02 sec. (18.32 ticks)
Probing time = 0.01 sec. (3.73 ticks)
Cover probing fixed 0 vars, tightened 1 bounds.
Tried aggregator 1 time.
Detecting symmetries...
MIP Presolve eliminated 2 rows and 2 columns.
MIP Presolve modified 1836 coefficients.
Reduced MIP has 2120 rows, 2891 columns, and 12632 nonzeros.
Reduced MIP has 2593 binaries, 232 generals, 0 SOSs, and 0 indicators.
Presolve time = 0.01 sec. (7.72 ticks)
Probing time = 0.00 sec. (3.63 ticks)
Clique table members: 8912.
MIP emphasis: balance optimality and feasibility.
MIP search method: dynamic search.
Parallel mode: none, using 1 thread.
Root relaxation solution time = 0.04 sec. (44.93 ticks)

        Nodes                                         Cuts/
   Node  Left     Objective  IInf  Best Integer    Best Bound    ItCnt     Gap

*     0+    0                            0.0000     1065.0000              --- 
      0     0      804.3834   280        0.0000      804.3834     1012     --- 
      0     0      795.8821   280        0.0000     Cuts: 183     1599     --- 
      0     0      793.7329   280        0.0000     Cuts: 630     2467     --- 
      0     0      792.9410   280        0.0000     Cuts: 630     3235     --- 
*     0+    0                           60.0000      792.9410              --- 
*     0+    0                          295.0000      792.9410           168.79%
*     0+    0                          325.0000      792.9410           143.98%
*     0+    0                          340.0000      792.9410           133.22%
      0     0        cutoff            340.0000      792.9410     3235  133.22%
      0     0      792.6840   280      340.0000     Cuts: 508     3925  133.14%
      0     0      792.6840   280      340.0000     Cuts: 541     4748  133.14%
Detecting symmetries...
      0     0      792.5043   280      340.0000     Cuts: 124     5211  133.09%
*     0+    0                          395.0000      792.5043           100.63%
*     0+    0                          440.0000      792.5043            80.11%
*     0+    0                          460.0000      792.5043            72.28%
*     0+    0                          470.0000      792.5043            68.62%
*     0+    0                          475.0000      792.5043            66.84%
*     0+    0                          480.0000      792.5043            65.11%
      0     0        cutoff            480.0000      792.5043     5211   65.11%
      0     0      792.0455   280      480.0000     Cuts: 630     5873   65.01%
      0     0      791.6667   280      480.0000     Cuts: 630     6697   64.93%
      0     0      791.6667   280      480.0000     Cuts: 630     7520   64.93%
*     0+    0                          510.0000      791.6667            55.23%
*     0+    0                          515.0000      791.6667            53.72%
Detecting symmetries...
      0     2      791.6667   279      515.0000      791.6667     7520   53.72%
Elapsed time = 2.22 sec. (2788.68 ticks, tree = 0.01 MB, solutions = 12)
      7     9      791.6667   279      515.0000      791.6667     9800   53.72%
     16    18      789.1667   248      515.0000      791.6667    12138   53.72%
     35    35      776.2500   217      515.0000      791.6667    15009   53.72%
     48    44      760.0666   262      515.0000      791.6667    17817   53.72%
     55    51      775.5723   237      515.0000      791.6667    19276   53.72%
     64    60      764.6965   248      515.0000      791.6667    21203   53.72%
    100    88      755.4149   209      515.0000      791.6667    22989   53.72%
    120   104      710.6874   176      515.0000      791.6667    24130   53.72%
    163   131    infeasible            515.0000      791.6667    26144   53.72%
    224   188      762.1836   261      515.0000      791.6667    33478   53.72%
Elapsed time = 4.42 sec. (6153.24 ticks, tree = 2.54 MB, solutions = 12)
    382   307      791.6667   296      515.0000      791.6667    42582   53.72%
    418   343      780.3680   276      515.0000      791.6667    48611   53.72%
    481   406      779.2918   275      515.0000      791.6667    53062   53.72%
    482   407      791.3623   309      515.0000      791.6667    54099   53.72%

Performing restart 1

Repeating presolve.
Tried aggregator 2 times.
MIP Presolve modified 2705 coefficients.
Aggregator did 6 substitutions.
Reduced MIP has 2114 rows, 2885 columns, and 10381 nonzeros.
Reduced MIP has 2587 binaries, 232 generals, 0 SOSs, and 0 indicators.
Presolve time = 0.01 sec. (11.54 ticks)
Tried aggregator 1 time.
Reduced MIP has 2114 rows, 2885 columns, and 10381 nonzeros.
Reduced MIP has 2587 binaries, 232 generals, 0 SOSs, and 0 indicators.
Presolve time = 0.01 sec. (7.14 ticks)
Represolve time = 0.07 sec. (58.56 ticks)
    483     0      786.5148   384      515.0000     Cuts: 527    64235   52.72%
    483     0      782.5301   384      515.0000     Cuts: 413    66531   51.95%
    483     0      779.8146   384      515.0000     Cuts: 365    69105   51.42%
    483     0      777.5573   384      515.0000     Cuts: 299    70423   50.98%
    483     0      774.8660   384      515.0000     Cuts: 241    72784   50.46%
    483     0      771.4197   384      515.0000     Cuts: 231    74622   49.79%
    483     0      770.1116   384      515.0000     Cuts: 252    77008   49.54%
    483     0      768.3564   384      515.0000     Cuts: 275    79269   49.20%
    483     0      767.5726   384      515.0000     Cuts: 250    81460   49.04%
    483     0      765.2431   384      515.0000     Cuts: 248    83340   48.59%
    483     0      764.2462   384      515.0000     Cuts: 223    84942   48.40%
    483     0      763.4419   384      515.0000     Cuts: 225    86058   48.24%
    483     0      763.0315   384      515.0000     Cuts: 215    87025   48.16%
    483     0      762.3336   384      515.0000     Cuts: 268    88602   48.03%
    483     0      760.8729   384      515.0000     Cuts: 267    93816   47.74%
    483     0      759.2728   384      515.0000     Cuts: 248    98632   47.43%
    483     0      758.7143   384      515.0000     Cuts: 209    99695   47.32%
    483     0      758.0512   384      515.0000     Cuts: 213   101644   47.19%
    483     0      757.1951   384      515.0000     Cuts: 262   102936   47.03%
    483     0      756.8844   384      515.0000     Cuts: 219   105432   46.97%
    483     0      756.7005   384      515.0000     Cuts: 322   108678   46.93%
    483     0      755.9334   384      515.0000     Cuts: 270   111544   46.78%
    483     0      755.8606   384      515.0000     Cuts: 260   114665   46.77%
    483     0      755.7867   384      515.0000     Cuts: 132   115220   46.75%
    483     0      755.6649   384      515.0000     Cuts: 249   116346   46.73%
    483     0      755.3898   384      515.0000     Cuts: 326   117373   46.68%
    483     0      755.1812   384      515.0000     Cuts: 311   118319   46.64%
    483     0      754.0698   384      515.0000     Cuts: 230   119981   46.42%
    483     0      753.7120   384      515.0000     Cuts: 252   121898   46.35%
    483     0      753.5062   384      515.0000     Cuts: 278   123571   46.31%
    483     0      752.7858   384      515.0000     Cuts: 203   126982   46.17%
    483     0      752.6878   384      515.0000     Cuts: 203   127500   46.15%
    483     0      752.2125   384      515.0000     Cuts: 146   129266   46.06%
    483     0      751.9508   384      515.0000     Cuts: 246   130667   46.01%
    483     0      751.4088   384      515.0000     Cuts: 248   131749   45.90%
    483     0      750.9834   384      515.0000     Cuts: 192   133872   45.82%
    483     0      750.8013   384      515.0000     Cuts: 266   135531   45.79%
    483     0      750.4660   384      515.0000     Cuts: 104   136360   45.72%
    483     0      750.2449   384      515.0000     Cuts: 215   137476   45.68%
    483     0      750.1340   384      515.0000     Cuts: 260   138836   45.66%
    483     0      750.0676   384      515.0000     Cuts: 239   139554   45.64%
    483     0      749.7492   384      515.0000     Cuts: 247   140390   45.58%
    483     0      749.4008   384      515.0000     Cuts: 244   141271   45.51%
    483     0      749.2847   384      515.0000     Cuts: 264   142948   45.49%
    483     2      749.2847   356      515.0000      749.2278   142948   45.48%
    485     4      748.2839   386      515.0000      748.4941   147000   45.34%
    487     6      748.2839   349      515.0000      748.2839   149780   45.30%
    490     9      746.3423   333      515.0000      748.2532   155095   45.29%
    493    12      745.4927   346      515.0000      748.2532   160172   45.29%
    497    16      742.8815   335      515.0000      748.2532   164886   45.29%
Elapsed time = 39.66 sec. (53420.55 ticks, tree = 0.10 MB, solutions = 12)
    502    21      740.4878   315      515.0000      748.2532   169375   45.29%
    508    27      743.1937   290      515.0000      748.2532   172807   45.29%
    518    37      741.8565   261      515.0000      748.2532   177281   45.29%
    525    44      732.7631   299      515.0000      748.2532   182762   45.29%
    531    50      732.1596   241      515.0000      748.2532   189057   45.29%
    535    54      717.3876   277      515.0000      748.2532   196804   45.29%
    541    60      718.9810   287      515.0000      748.2532   201300   45.29%
    549    68      717.2142   247      515.0000      748.2532   205309   45.29%
    557    76      717.0324   231      515.0000      748.2532   209787   45.29%
    568    87      716.1987   243      515.0000      748.2532   211820   45.29%
Elapsed time = 46.96 sec. (64172.30 ticks, tree = 0.52 MB, solutions = 12)
*   583+  100                          525.0000      748.2532            42.52%
*   583+  100                          535.0000      748.2532            39.86%
*   583+  100                          540.0000      748.2532            38.57%
    583   102      696.8232   235      540.0000      748.2532   213799   38.57%
    604   121      663.1133   198      540.0000      748.2532   215773   38.57%
    630   132      551.5179    88      540.0000      748.2532   218582   38.57%
    636   135      740.9509   311      540.0000      748.2321   220811   38.56%
    647   146      740.7190   294      540.0000      748.2321   222487   38.56%
    662   161      736.9171   290      540.0000      748.2321   226373   38.56%
    675   174      733.3630   280      540.0000      748.2321   231501   38.56%
    683   182      731.2328   302      540.0000      748.2321   233435   38.56%
    697   196      724.3770   293      540.0000      748.2321   237359   38.56%
    714   213      716.4507   260      540.0000      748.2321   241659   38.56%
Elapsed time = 56.82 sec. (77852.24 ticks, tree = 0.69 MB, solutions = 15)
    729   228      708.0274   263      540.0000      748.2321   247962   38.56%
    749   248      699.4782   243      540.0000      748.2321   255579   38.56%
    783   280      695.9010   234      540.0000      748.2321   261658   38.56%
    830   325      663.7255   194      540.0000      748.2321   270658   38.56%
    837   328      745.8703   352      540.0000      745.9152   275546   38.13%
    849   340      740.1185   293      540.0000      745.9152   283139   38.13%
    861   352      734.4047   248      540.0000      745.9152   290555   38.13%
    874   365      728.2278   275      540.0000      745.9152   298527   38.13%
    885   376      740.0602   327      540.0000      745.8703   310229   38.12%
    891   382      724.4794   297      540.0000      745.8703   316022   38.12%
Elapsed time = 66.08 sec. (90585.90 ticks, tree = 0.94 MB, solutions = 15)
    910   401      708.0396   243      540.0000      745.8703   322126   38.12%
    928   419      696.0000   252      540.0000      745.8703   326355   38.12%
    961   448      745.4099   307      540.0000      745.8519   335271   38.12%
    973   460      732.0104   258      540.0000      745.8519   341835   38.12%
    993   480      726.2571   259      540.0000      745.8519   348751   38.12%
   1015   502      715.9379   260      540.0000      745.8519   354968   38.12%
   1054   538      651.6173   197      540.0000      745.8519   361352   38.12%
   1088   568      730.7513   331      540.0000      745.8351   368126   38.12%
   1095   575      722.5430   316      540.0000      745.8351   375059   38.12%
   1112   592      718.5799   271      540.0000      745.8351   381750   38.12%
Elapsed time = 73.53 sec. (101193.42 ticks, tree = 1.34 MB, solutions = 15)
   1132   612      708.9580   247      540.0000      745.8351   385812   38.12%
   1178   658      698.2472   200      540.0000      745.8351   391867   38.12%
   1183   663      696.4392   203      540.0000      745.8351   392206   38.12%
   1241   710      739.4352   358      540.0000      745.6039   401322   38.07%
   1247   716      728.5895   301      540.0000      745.6039   408111   38.07%
   1263   732      714.7866   258      540.0000      745.6039   413372   38.07%
   1276   745      700.8641   215      540.0000      745.6039   419096   38.07%
   1295   764      689.7347   214      540.0000      745.6039   423570   38.07%
   1311   776      740.9704   320      540.0000      745.4927   431232   38.05%
   1320   785      730.9108   280      540.0000      745.4927   436389   38.05%
Elapsed time = 83.41 sec. (114904.11 ticks, tree = 4.05 MB, solutions = 15)
   1340   805      716.9730   230      540.0000      745.4927   442561   38.05%
   1371   834    infeasible            540.0000      745.4927   448939   38.05%
   1381   842      738.2673   294      540.0000      745.4927   452680   38.05%
   1429   890      677.2449   214      540.0000      745.4927   458339   38.05%
   1469   927      642.9428   216      540.0000      745.4927   464658   38.05%
   1490   940      737.4639   272      540.0000      745.4035   469532   38.04%
   1506   956      725.1866   267      540.0000      745.4035   475154   38.04%
   1561  1004      612.3423   121      540.0000      745.4035   481520   38.04%
   1570  1009      726.5057   257      540.0000      745.3933   486165   38.04%
   1599  1036      709.4165   209      540.0000      745.3933   492863   38.04%
Elapsed time = 90.34 sec. (124984.61 ticks, tree = 7.00 MB, solutions = 15)
   1645  1080      663.9975   156      540.0000      745.3933   498143   38.04%
   1724  1133      717.8836   279      540.0000      745.3883   502514   38.03%
   1772  1181      696.1445   239      540.0000      745.3883   508481   38.03%
   1790  1193      742.7832   316      540.0000      745.2567   514145   38.01%
   1844  1243      679.1965   179      540.0000      745.2567   520616   38.01%
   1875  1267      743.7478   335      540.0000      745.2443   524781   38.01%
   1893  1285      724.1805   261      540.0000      745.2443   531261   38.01%
   1904  1296      710.3409   280      540.0000      745.2443   537414   38.01%
   1957  1343      659.7747   193      540.0000      745.2443   543746   38.01%
   1983  1365      624.6329   138      540.0000      745.2443   545897   38.01%
Elapsed time = 98.31 sec. (136086.80 ticks, tree = 10.77 MB, solutions = 15)
   2002  1380      732.6602   320      540.0000      744.9040   550130   37.95%
   2014  1392      724.8772   311      540.0000      744.9040   552528   37.95%
   2077  1449      739.5524   388      540.0000      744.5892   561612   37.89%
   2086  1458      734.7300   351      540.0000      744.5892   568429   37.89%
   2114  1486      711.6156   263      540.0000      744.5892   574239   37.89%
   2148  1520      683.3287   185      540.0000      744.5892   580632   37.89%
   2215  1580      650.1513   149      540.0000      744.5892   586257   37.89%
   2247  1603      738.6036   297      540.0000      744.2993   591014   37.83%
   2289  1645      715.8713   276      540.0000      744.2993   597370   37.83%
   2401  1748      742.5464   335      540.0000      744.1799   616303   37.81%
Elapsed time = 107.82 sec. (149813.31 ticks, tree = 16.84 MB, solutions = 15)
   2488  1835      619.0429   138      540.0000      744.1799   637359   37.81%
   2683  2017      728.8631   295      540.0000      744.1565   657217   37.81%
   2820  2122      727.9225   303      540.0000      744.0588   678857   37.79%
   2945  2238      711.4193   262      540.0000      743.8542   700476   37.75%
   3026  2311      630.3974   176      540.0000      743.8182   722043   37.74%
   3188  2455      711.8236   254      540.0000      743.7036   745092   37.72%
   3334  2584      699.2622   225      540.0000      743.4726   766517   37.68%
   3444  2688      683.6058   203      540.0000      742.8815   790778   37.57%
   3595  2827      703.5325   230      540.0000      742.8813   809559   37.57%
Starting limited solution polishing.
   3689  2917      701.7296   212      540.0000      742.7832   825804   37.55%
Elapsed time = 137.06 sec. (191072.55 ticks, tree = 34.16 MB, solutions = 15)
   3928  3114      727.0257   327      540.0000      742.5583   851248   37.51%
   4009  3190      716.6199   289      540.0000      742.5460   870232   37.51%
   4212  3377      737.7512   339      540.0000      742.5212   895860   37.50%
*  4283+ 3423                          545.0000      742.5212            36.24%
*  4283+ 3420                          550.0000      742.5212            35.00%
*  4283+ 3417                          555.0000      742.5212            33.79%
*  4283+ 3414                          560.0000      742.5212            32.59%
   4304  3433      742.5212   323      560.0000      742.5212   904029   32.59%

GUB cover cuts applied:  151
Clique cuts applied:  66
Cover cuts applied:  44
Implied bound cuts applied:  81
Flow cuts applied:  14
Mixed integer rounding cuts applied:  102
Zero-half cuts applied:  99
Lift and project cuts applied:  8
Gomory fractional cuts applied:  7

Root node processing (before b&c):
  Real time             =    2.20 sec. (2772.99 ticks)
Sequential b&c:
  Real time             =  147.80 sec. (206489.82 ticks)
                          ------------
Total (root+branch&cut) =  150.00 sec. (209262.81 ticks)

Solution pool: 20 solutions saved.

MIP - Time limit exceeded, integer feasible:  Objective =  5.6000000000e+02
Current MIP best bound =  7.4252118140e+02 (gap = 182.521, 32.59%)
Solution time =  150.00 sec.  Iterations = 916547  Nodes = 4333 (3461)
Deterministic time = 209262.83 ticks  (1395.08 ticks/sec)


Incumbent solution
Variable Name           Solution Value
F                           560.000000
y262                          1.000000
y101                          1.000000
y242                          1.000000
y173                          1.000000
y98                           1.000000
y132                          1.000000
y204                          1.000000
y115                          1.000000
y150                          1.000000
y251                          1.000000
y28                           1.000000
y257                          1.000000
y235                          1.000000
y76                           1.000000
y116                          1.000000
y202                          1.000000
y71                           1.000000
y59                           1.000000
y134                          1.000000
y83                           1.000000
y64                           1.000000
y72                           1.000000
y163                          1.000000
y166                          1.000000
y84                           1.000000
y253                          1.000000
y63                           1.000000
y195                          1.000000
y95                           1.000000
y141                          1.000000
y92                           1.000000
y15                           1.000000
y12                           1.000000
x86x132x1                     1.000000
x126x262x1                    1.000000
x41x242x1                     2.000000
x9x173x1                      1.000000
x214x257x1                    1.000000
x222x98x1                     2.000000
x97x150x1                     1.000000
x86x132x2                     1.000000
x248x101x2                    1.000000
x184x115x2                    2.000000
x107x71x2                     1.000000
x126x262x2                    1.000000
x214x150x2                    1.000000
x149x116x2                    1.000000
x97x71x2                      1.000000
x248x101x3                    1.000000
x107x59x3                     1.000000
x9x173x3                      1.000000
x149x59x3                     1.000000
x233x204x3                    2.000000
x256x257x3                    1.000000
x256x166x3                    1.000000
x110x116x3                    1.000000
x262x235x1                    1.000000
x262x235x2                    1.000000
x101x76x2                     1.000000
x101x28x3                     1.000000
x242x64x1                     2.000000
x173x202x1                    1.000000
x173x166x3                    1.000000
x98x134x1                     1.000000
x98x63x1                      1.000000
x132x28x1                     1.000000
x132x76x2                     1.000000
x204x202x3                    1.000000
x204x134x3                    1.000000
x115x251x2                    2.000000
x150x63x1                     1.000000
x150x15x2                     1.000000
x251x141x2                    2.000000
x28x72x1                      1.000000
x28x12x3                      1.000000
x257x83x1                     1.000000
x257x83x3                     1.000000
x235x253x1                    1.000000
x235x12x2                     1.000000
x76x72x2                      1.000000
x76x84x2                      1.000000
x116x253x2                    1.000000
x116x15x3                     1.000000
x202x0x1                      1.000000
x202x84x3                     1.000000
x71x163x2                     2.000000
x59x195x3                     2.000000
x134x0x1                      1.000000
x134x0x3                      1.000000
x83x0x1                       1.000000
x83x0x3                       1.000000
x64x95x1                      2.000000
x72x0x1                       1.000000
x72x0x2                       1.000000
x163x0x2                      2.000000
x166x92x3                     2.000000
x84x0x2                       1.000000
x84x0x3                       1.000000
x253x0x1                      1.000000
x253x0x2                      1.000000
x63x0x1                       2.000000
x195x0x3                      2.000000
x95x0x1                       2.000000
x141x0x2                      2.000000
x92x0x3                       2.000000
x15x0x2                       1.000000
x15x0x3                       1.000000
x12x0x2                       1.000000
x12x0x3                       1.000000
s86                           5.032730
s176                          5.410000
s242                          6.352026
s38                           5.630000
s174                          5.660000
s105                          5.680000
s100                          5.710000
s259                          6.556704
s114                          5.720000
s157                          5.730000
s173                          6.543429
s207                          5.750000
s217                          5.770000
s98                           6.577797
s250                          5.820000
s132                          6.563433
z86z132z1                     1.000000
z86z132z2                     1.000000
s60                           6.724879
s115                          6.227047
s130                          5.900000
s129                          5.910000
s177                          5.990000
s85                           6.937735
s219                          6.210000
s103                          6.864503
s150                          7.149167
s251                          7.540000
s28                           7.780000
s2                            7.800000
z86z2z1                       1.000000
s44                           6.840000
s198                          7.890000
s245                          6.900000
z86z245z1                     1.000000
s257                          7.450957
s55                           7.920000
s96                           6.980000
z86z96z1                      1.000000
s235                          7.732774
s76                           7.776036
z86z76z2                      1.000000
s78                           8.350000
s116                          7.816237
s159                          8.430000
s226                          8.450000
z86z226z1                     1.000000
s164                          7.530000
z86z164z1                     1.000000
s202                          8.031475
s71                           7.710612
z86z71z2                      1.000000
s127                          7.820000
s134                          8.850000
s33                           8.860000
z86z33z2                      1.000000
s87                           8.880000
s83                           8.765423
s261                          9.020000
z86z261z2                     1.000000
s64                           8.188537
z86z64z1                      1.000000
s171                          9.040000
s72                           9.090000
s163                          9.110000
z86z163z2                     1.000000
s84                           9.140000
s253                          9.072708
s63                           9.180000
z86z63z1                      1.000000
s123                          9.210000
s119                          8.240000
s95                           9.250000
z86z95z1                      1.000000
s50                           9.310000
s141                          9.310000
z86z141z2                     1.000000
s125                          9.380000
z86z125z2                     1.000000
s15                           9.460000
s12                           9.470000
s248                          4.927490
s101                          6.295265
z248z101z2                    1.000000
z248z101z3                    1.000000
s179                          5.530000
s204                          6.638769
s45                           5.990000
s108                          6.620000
z248z76z2                     1.000000
z248z71z2                     1.000000
s59                           7.862385
z248z59z3                     1.000000
z248z33z2                     1.000000
z248z261z2                    1.000000
z248z163z2                    1.000000
s166                          8.353078
z248z166z3                    1.000000
s195                          9.240000
z248z195z3                    1.000000
z248z141z2                    1.000000
s61                           9.380000
z248z61z3                     1.000000
z248z125z2                    1.000000
s92                           9.440000
z248z92z3                     1.000000
s184                          4.771930
s154                          5.270000
s262                          6.160313
s74                           5.290000
s156                          6.187977
s16                           5.370000
z184z115z2                    1.000000
z184z251z2                    1.000000
z184z76z2                     1.000000
z184z71z2                     1.000000
z184z33z2                     1.000000
z184z261z2                    1.000000
z184z163z2                    1.000000
z184z141z2                    1.000000
z184z125z2                    1.000000
s107                          5.669430
z107z71z2                     1.000000
z107z59z3                     1.000000
z107z33z2                     1.000000
z107z261z2                    1.000000
z107z163z2                    1.000000
z107z166z3                    1.000000
z107z195z3                    1.000000
z107z141z2                    1.000000
z107z61z3                     1.000000
z107z125z2                    1.000000
z107z92z3                     1.000000
s126                          4.988490
s40                           5.270000
z126z262z1                    1.000000
z126z262z2                    1.000000
s205                          5.300000
z126z2z1                      1.000000
z126z245z1                    1.000000
z126z96z1                     1.000000
z126z76z2                     1.000000
z126z226z1                    1.000000
z126z164z1                    1.000000
z126z71z2                     1.000000
z126z33z2                     1.000000
z126z261z2                    1.000000
z126z64z1                     1.000000
z126z163z2                    1.000000
z126z63z1                     1.000000
z126z95z1                     1.000000
z126z141z2                    1.000000
z126z125z2                    1.000000
s41                           4.939400
z41z242z1                     1.000000
z41z2z1                       1.000000
z41z245z1                     1.000000
z41z96z1                      1.000000
z41z226z1                     1.000000
z41z164z1                     1.000000
z41z64z1                      1.000000
z41z63z1                      1.000000
z41z95z1                      1.000000
s9                            4.990470
z9z173z1                      1.000000
z9z173z3                      1.000000
z9z2z1                        1.000000
z9z245z1                      1.000000
z9z96z1                       1.000000
z9z226z1                      1.000000
z9z164z1                      1.000000
z9z59z3                       1.000000
z9z64z1                       1.000000
z9z166z3                      1.000000
z9z63z1                       1.000000
z9z195z3                      1.000000
z9z95z1                       1.000000
z9z61z3                       1.000000
z9z92z3                       1.000000
s214                          5.381120
z214z150z2                    1.000000
z214z257z1                    1.000000
z214z76z2                     1.000000
z214z226z1                    1.000000
z214z164z1                    1.000000
z214z71z2                     1.000000
z214z33z2                     1.000000
z214z261z2                    1.000000
z214z64z1                     1.000000
z214z163z2                    1.000000
z214z63z1                     1.000000
z214z95z1                     1.000000
z214z141z2                    1.000000
z214z125z2                    1.000000
s149                          5.710770
z149z116z2                    1.000000
z149z71z2                     1.000000
z149z59z3                     1.000000
z149z33z2                     1.000000
z149z261z2                    1.000000
z149z163z2                    1.000000
z149z166z3                    1.000000
z149z195z3                    1.000000
z149z141z2                    1.000000
z149z61z3                     1.000000
z149z125z2                    1.000000
z149z92z3                     1.000000
s233                          5.077940
z233z204z3                    1.000000
z233z59z3                     1.000000
z233z166z3                    1.000000
z233z195z3                    1.000000
z233z61z3                     1.000000
z233z92z3                     1.000000
s222                          5.188820
z222z98z1                     1.000000
z222z2z1                      1.000000
z222z245z1                    1.000000
z222z96z1                     1.000000
z222z226z1                    1.000000
z222z164z1                    1.000000
z222z64z1                     1.000000
z222z63z1                     1.000000
z222z95z1                     1.000000
s97                           5.534090
z97z150z1                     1.000000
z97z76z2                      1.000000
z97z226z1                     1.000000
z97z164z1                     1.000000
z97z71z2                      1.000000
z97z33z2                      1.000000
z97z261z2                     1.000000
z97z64z1                      1.000000
z97z163z2                     1.000000
z97z63z1                      1.000000
z97z95z1                      1.000000
z97z141z2                     1.000000
z97z125z2                     1.000000
s256                          5.870000
z256z257z3                    1.000000
z256z59z3                     1.000000
z256z166z3                    1.000000
z256z195z3                    1.000000
z256z61z3                     1.000000
z256z92z3                     1.000000
s110                          3.609930
s93                           5.380000
z110z108z3                    1.000000
z110z116z3                    1.000000
z110z59z3                     1.000000
z110z166z3                    1.000000
z110z195z3                    1.000000
z110z61z3                     1.000000
z110z92z3                     1.000000
z40z63z1                      1.000000
z40z195z3                     1.000000
z40z95z1                      1.000000
z40z61z3                      1.000000
z40z92z3                      1.000000
z154z71z2                     1.000000
z154z33z2                     1.000000
z154z261z2                    1.000000
z154z163z2                    1.000000
z154z141z2                    1.000000
z154z125z2                    1.000000
z262z235z1                    1.000000
z262z235z2                    1.000000
z262z33z2                     1.000000
z262z261z2                    1.000000
z262z163z2                    1.000000
z262z63z1                     1.000000
z262z95z1                     1.000000
z262z141z2                    1.000000
z262z125z2                    1.000000
z74z71z2                      1.000000
z74z33z2                      1.000000
z74z261z2                     1.000000
z74z163z2                     1.000000
z74z141z2                     1.000000
z74z125z2                     1.000000
z205z63z1                     1.000000
z205z195z3                    1.000000
z205z95z1                     1.000000
z205z61z3                     1.000000
z205z92z3                     1.000000
z156z33z2                     1.000000
z156z261z2                    1.000000
z156z163z2                    1.000000
z156z195z3                    1.000000
z156z141z2                    1.000000
z156z61z3                     1.000000
z156z125z2                    1.000000
z156z92z3                     1.000000
z16z33z2                      1.000000
z16z261z2                     1.000000
z16z163z2                     1.000000
z16z195z3                     1.000000
z16z141z2                     1.000000
z16z61z3                      1.000000
z16z125z2                     1.000000
z16z92z3                      1.000000
z101z28z3                     1.000000
z101z76z2                     1.000000
z101z33z2                     1.000000
z101z261z2                    1.000000
z101z163z2                    1.000000
z101z61z3                     1.000000
z101z125z2                    1.000000
z101z92z3                     1.000000
z93z195z3                     1.000000
z93z61z3                      1.000000
z93z92z3                      1.000000
z176z33z2                     1.000000
z176z261z2                    1.000000
z176z163z2                    1.000000
z176z141z2                    1.000000
z176z61z3                     1.000000
z176z125z2                    1.000000
z176z92z3                     1.000000
z179z61z3                     1.000000
z179z92z3                     1.000000
z242z64z1                     1.000000
z242z63z1                     1.000000
z38z33z2                      1.000000
z38z261z2                     1.000000
z38z163z2                     1.000000
z38z125z2                     1.000000
z174z63z1                     1.000000
z105z33z2                     1.000000
z105z163z2                    1.000000
z105z63z1                     1.000000
z105z125z2                    1.000000
z100z33z2                     1.000000
z100z163z2                    1.000000
z100z125z2                    1.000000
z100z92z3                     1.000000
z259z63z1                     1.000000
z114z33z2                     1.000000
z114z163z2                    1.000000
z114z125z2                    1.000000
z114z92z3                     1.000000
z157z63z1                     1.000000
z157z92z3                     1.000000
z173z202z1                    1.000000
z173z166z3                    1.000000
z173z63z1                     1.000000
z173z92z3                     1.000000
z207z63z1                     1.000000
z217z63z1                     1.000000
z217z92z3                     1.000000
z98z134z1                     1.000000
z98z63z1                      1.000000
z98z95z1                      1.000000
z250z125z2                    1.000000
z250z92z3                     1.000000
z132z28z1                     1.000000
z132z76z2                     1.000000
z132z63z1                     1.000000
z132z125z2                    1.000000
z204z202z3                    1.000000
z204z134z3                    1.000000
z204z92z3                     1.000000
z60z63z1                      1.000000
z60z92z3                      1.000000
z115z251z2                    1.000000
z115z125z2                    1.000000
z130z63z1                     1.000000
z130z92z3                     1.000000
z129z63z1                     1.000000
z129z125z2                    1.000000
z45z92z3                      1.000000
z177z63z1                     1.000000
z177z125z2                    1.000000
z85z63z1                      1.000000
z85z125z2                     1.000000
z219z125z2                    1.000000
z219z92z3                     1.000000
z103z63z1                     1.000000
z150z63z1                     1.000000
z150z125z2                    1.000000
z150z15z2                     1.000000
z251z141z2                    1.000000
z251z125z2                    1.000000
z108z92z3                     1.000000
z28z72z1                      1.000000
z28z12z3                      1.000000
z44z92z3                      1.000000
z257z83z1                     1.000000
z257z83z3                     1.000000
z257z92z3                     1.000000
z235z253z1                    1.000000
z235z12z2                     1.000000
z76z72z2                      1.000000
z76z84z2                      1.000000
z116z253z2                    1.000000
z116z15z3                     1.000000
z202z84z3                     1.000000
z71z163z2                     1.000000
z59z195z3                     1.000000
z64z95z1                      1.000000
z166z92z3                     1.000000
All other variables in the range 1-6229 are 0.
